p cnf 225 1
225 0
w 1 0.825725
w 2 1 1
w 2 -1 0
w 3 2 1
w 3 -2 0
w 4 3 0
w 4 -3 1
w 5 4 1
w 5 -4 0
w 6 5 0.920393
w 6 -5 0.843007
w 7 6 0
w 7 -6 1
w 8 7 0.163352
w 8 -7 0.578583
w 9 8 1
w 9 -8 0
w 10 9 1
w 10 -9 0
w 11 10 1
w 11 -10 0
w 12 11 0
w 12 -11 1
w 13 12 1
w 13 -12 0
w 14 13 1
w 14 -13 0
w 15 14 0
w 15 -14 1
w 16 1 0
w 16 -1 1
w 17 16 2 0
w 17 16 -2 1
w 17 -16 2 0
w 17 -16 -2 0
w 18 17 3 0
w 18 17 -3 0
w 18 -17 3 1
w 18 -17 -3 1
w 19 18 4 1
w 19 18 -4 0
w 19 -18 4 1
w 19 -18 -4 1
w 20 19 5 1
w 20 19 -5 1
w 20 -19 5 1
w 20 -19 -5 0
w 21 20 6 0.953165
w 21 20 -6 0.00444128
w 21 -20 6 0.309638
w 21 -20 -6 0.977809
w 22 21 7 1
w 22 21 -7 1
w 22 -21 7 0
w 22 -21 -7 0
w 23 22 8 0.754865
w 23 22 -8 0.68758
w 23 -22 8 0.994189
w 23 -22 -8 0.753728
w 24 23 9 0
w 24 23 -9 0
w 24 -23 9 0
w 24 -23 -9 1
w 25 24 10 0.995666
w 25 24 -10 0.889972
w 25 -24 10 0.280496
w 25 -24 -10 0.659217
w 26 25 11 0
w 26 25 -11 1
w 26 -25 11 0
w 26 -25 -11 1
w 27 26 12 1
w 27 26 -12 1
w 27 -26 12 0
w 27 -26 -12 1
w 28 27 13 0.822077
w 28 27 -13 0.701185
w 28 -27 13 0.10831
w 28 -27 -13 0.0763139
w 29 28 14 1
w 29 28 -14 1
w 29 -28 14 0
w 29 -28 -14 0
w 30 29 15 0
w 30 29 -15 0
w 30 -29 15 0
w 30 -29 -15 1
w 31 16 0.312167
w 31 -16 0.521966
w 32 31 17 1
w 32 31 -17 1
w 32 -31 17 0
w 32 -31 -17 0
w 33 32 18 1
w 33 32 -18 1
w 33 -32 18 0
w 33 -32 -18 0
w 34 33 19 1
w 34 33 -19 0
w 34 -33 19 1
w 34 -33 -19 1
w 35 34 20 0.613978
w 35 34 -20 0.578251
w 35 -34 20 0.771798
w 35 -34 -20 0.445157
w 36 35 21 0.665271
w 36 35 -21 0.0300635
w 36 -35 21 0.614709
w 36 -35 -21 0.162849
w 37 36 22 1
w 37 36 -22 0
w 37 -36 22 1
w 37 -36 -22 0
w 38 37 23 1
w 38 37 -23 1
w 38 -37 23 0
w 38 -37 -23 0
w 39 38 24 0.629949
w 39 38 -24 0.982888
w 39 -38 24 0.914592
w 39 -38 -24 0.933271
w 40 39 25 0.630179
w 40 39 -25 0.282493
w 40 -39 25 0.593928
w 40 -39 -25 0.167843
w 41 40 26 0
w 41 40 -26 0
w 41 -40 26 1
w 41 -40 -26 1
w 42 41 27 0
w 42 41 -27 0
w 42 -41 27 0
w 42 -41 -27 1
w 43 42 28 1
w 43 42 -28 0
w 43 -42 28 0
w 43 -42 -28 0
w 44 43 29 1
w 44 43 -29 1
w 44 -43 29 0
w 44 -43 -29 1
w 45 44 30 0
w 45 44 -30 0
w 45 -44 30 1
w 45 -44 -30 1
w 46 31 0.283347
w 46 -31 0.031253
w 47 46 32 1
w 47 46 -32 0
w 47 -46 32 0
w 47 -46 -32 0
w 48 47 33 0.330667
w 48 47 -33 0.581959
w 48 -47 33 0.207897
w 48 -47 -33 0.0354941
w 49 48 34 1
w 49 48 -34 1
w 49 -48 34 1
w 49 -48 -34 0
w 50 49 35 1
w 50 49 -35 0
w 50 -49 35 0
w 50 -49 -35 0
w 51 50 36 1
w 51 50 -36 1
w 51 -50 36 1
w 51 -50 -36 0
w 52 51 37 0
w 52 51 -37 0
w 52 -51 37 1
w 52 -51 -37 0
w 53 52 38 1
w 53 52 -38 0
w 53 -52 38 0
w 53 -52 -38 1
w 54 53 39 0.343723
w 54 53 -39 0.398958
w 54 -53 39 0.1155
w 54 -53 -39 0.379217
w 55 54 40 0.580438
w 55 54 -40 0.734247
w 55 -54 40 0.436259
w 55 -54 -40 0.333232
w 56 55 41 1
w 56 55 -41 0
w 56 -55 41 1
w 56 -55 -41 0
w 57 56 42 0
w 57 56 -42 1
w 57 -56 42 1
w 57 -56 -42 1
w 58 57 43 0.886399
w 58 57 -43 0.240298
w 58 -57 43 0.482027
w 58 -57 -43 0.482405
w 59 58 44 0.0755674
w 59 58 -44 0.955686
w 59 -58 44 0.894572
w 59 -58 -44 0.0886236
w 60 59 45 0.802175
w 60 59 -45 0.432347
w 60 -59 45 0.171643
w 60 -59 -45 0.917674
w 61 46 0.0560716
w 61 -46 0.498113
w 62 61 47 0
w 62 61 -47 1
w 62 -61 47 0
w 62 -61 -47 0
w 63 62 48 1
w 63 62 -48 0
w 63 -62 48 1
w 63 -62 -48 1
w 64 63 49 1
w 64 63 -49 0
w 64 -63 49 0
w 64 -63 -49 1
w 65 64 50 0
w 65 64 -50 0
w 65 -64 50 0
w 65 -64 -50 1
w 66 65 51 0.221176
w 66 65 -51 0.675587
w 66 -65 51 0.543373
w 66 -65 -51 0.0233505
w 67 66 52 0
w 67 66 -52 0
w 67 -66 52 0
w 67 -66 -52 1
w 68 67 53 0
w 68 67 -53 1
w 68 -67 53 1
w 68 -67 -53 0
w 69 68 54 1
w 69 68 -54 0
w 69 -68 54 1
w 69 -68 -54 0
w 70 69 55 1
w 70 69 -55 1
w 70 -69 55 0
w 70 -69 -55 1
w 71 70 56 1
w 71 70 -56 1
w 71 -70 56 1
w 71 -70 -56 0
w 72 71 57 0
w 72 71 -57 1
w 72 -71 57 0
w 72 -71 -57 0
w 73 72 58 1
w 73 72 -58 1
w 73 -72 58 0
w 73 -72 -58 1
w 74 73 59 0
w 74 73 -59 1
w 74 -73 59 1
w 74 -73 -59 0
w 75 74 60 1
w 75 74 -60 1
w 75 -74 60 0
w 75 -74 -60 0
w 76 61 1
w 76 -61 0
w 77 76 62 1
w 77 76 -62 0
w 77 -76 62 1
w 77 -76 -62 1
w 78 77 63 0.400061
w 78 77 -63 0.170099
w 78 -77 63 0.413127
w 78 -77 -63 0.0652371
w 79 78 64 0
w 79 78 -64 1
w 79 -78 64 1
w 79 -78 -64 1
w 80 79 65 0.282289
w 80 79 -65 0.892006
w 80 -79 65 0.666424
w 80 -79 -65 0.0196295
w 81 80 66 0.616691
w 81 80 -66 0.108113
w 81 -80 66 0.413197
w 81 -80 -66 0.995192
w 82 81 67 0.363329
w 82 81 -67 0.674387
w 82 -81 67 0.890233
w 82 -81 -67 0.754743
w 83 82 68 1
w 83 82 -68 1
w 83 -82 68 1
w 83 -82 -68 0
w 84 83 69 1
w 84 83 -69 1
w 84 -83 69 1
w 84 -83 -69 0
w 85 84 70 0
w 85 84 -70 1
w 85 -84 70 0
w 85 -84 -70 1
w 86 85 71 0
w 86 85 -71 0
w 86 -85 71 1
w 86 -85 -71 0
w 87 86 72 0.284567
w 87 86 -72 0.0239652
w 87 -86 72 0.95207
w 87 -86 -72 0.697763
w 88 87 73 0
w 88 87 -73 0
w 88 -87 73 1
w 88 -87 -73 1
w 89 88 74 0.794016
w 89 88 -74 0.992545
w 89 -88 74 0.432645
w 89 -88 -74 0.40006
w 90 89 75 0
w 90 89 -75 1
w 90 -89 75 1
w 90 -89 -75 1
w 91 76 1
w 91 -76 0
w 92 91 77 0
w 92 91 -77 1
w 92 -91 77 1
w 92 -91 -77 1
w 93 92 78 1
w 93 92 -78 0
w 93 -92 78 1
w 93 -92 -78 1
w 94 93 79 1
w 94 93 -79 1
w 94 -93 79 0
w 94 -93 -79 0
w 95 94 80 0
w 95 94 -80 0
w 95 -94 80 0
w 95 -94 -80 1
w 96 95 81 0.0915069
w 96 95 -81 0.787441
w 96 -95 81 0.379997
w 96 -95 -81 0.985078
w 97 96 82 1
w 97 96 -82 1
w 97 -96 82 0
w 97 -96 -82 0
w 98 97 83 0
w 98 97 -83 1
w 98 -97 83 0
w 98 -97 -83 0
w 99 98 84 1
w 99 98 -84 0
w 99 -98 84 0
w 99 -98 -84 0
w 100 99 85 0
w 100 99 -85 1
w 100 -99 85 1
w 100 -99 -85 0
w 101 100 86 0.367603
w 101 100 -86 0.669044
w 101 -100 86 0.821353
w 101 -100 -86 0.0264645
w 102 101 87 1
w 102 101 -87 0
w 102 -101 87 0
w 102 -101 -87 1
w 103 102 88 1
w 103 102 -88 0
w 103 -102 88 0
w 103 -102 -88 1
w 104 103 89 0.907856
w 104 103 -89 0.202336
w 104 -103 89 0.792769
w 104 -103 -89 0.801402
w 105 104 90 0
w 105 104 -90 0
w 105 -104 90 0
w 105 -104 -90 1
w 106 91 1
w 106 -91 0
w 107 106 92 0
w 107 106 -92 1
w 107 -106 92 1
w 107 -106 -92 1
w 108 107 93 0
w 108 107 -93 0
w 108 -107 93 1
w 108 -107 -93 1
w 109 108 94 0
w 109 108 -94 0
w 109 -108 94 0
w 109 -108 -94 1
w 110 109 95 0
w 110 109 -95 0
w 110 -109 95 0
w 110 -109 -95 1
w 111 110 96 1
w 111 110 -96 1
w 111 -110 96 0
w 111 -110 -96 0
w 112 111 97 1
w 112 111 -97 0
w 112 -111 97 0
w 112 -111 -97 0
w 113 112 98 0.525814
w 113 112 -98 0.971951
w 113 -112 98 0.696834
w 113 -112 -98 0.88031
w 114 113 99 1
w 114 113 -99 0
w 114 -113 99 1
w 114 -113 -99 1
w 115 114 100 0.269801
w 115 114 -100 0.328405
w 115 -114 100 0.362183
w 115 -114 -100 0.654608
w 116 115 101 0
w 116 115 -101 0
w 116 -115 101 1
w 116 -115 -101 0
w 117 116 102 0
w 117 116 -102 1
w 117 -116 102 1
w 117 -116 -102 1
w 118 117 103 0
w 118 117 -103 0
w 118 -117 103 1
w 118 -117 -103 0
w 119 118 104 1
w 119 118 -104 1
w 119 -118 104 0
w 119 -118 -104 1
w 120 119 105 0
w 120 119 -105 0
w 120 -119 105 1
w 120 -119 -105 0
w 121 106 0.805964
w 121 -106 0.029448
w 122 121 107 1
w 122 121 -107 1
w 122 -121 107 0
w 122 -121 -107 1
w 123 122 108 0.805781
w 123 122 -108 0.163881
w 123 -122 108 0.221839
w 123 -122 -108 0.911828
w 124 123 109 0
w 124 123 -109 1
w 124 -123 109 0
w 124 -123 -109 0
w 125 124 110 0
w 125 124 -110 1
w 125 -124 110 0
w 125 -124 -110 0
w 126 125 111 0.363177
w 126 125 -111 0.352324
w 126 -125 111 0.303219
w 126 -125 -111 0.806959
w 127 126 112 0
w 127 126 -112 0
w 127 -126 112 1
w 127 -126 -112 0
w 128 127 113 0
w 128 127 -113 1
w 128 -127 113 0
w 128 -127 -113 0
w 129 128 114 0
w 129 128 -114 0
w 129 -128 114 1
w 129 -128 -114 0
w 130 129 115 1
w 130 129 -115 0
w 130 -129 115 1
w 130 -129 -115 0
w 131 130 116 1
w 131 130 -116 0
w 131 -130 116 1
w 131 -130 -116 0
w 132 131 117 0
w 132 131 -117 1
w 132 -131 117 0
w 132 -131 -117 1
w 133 132 118 0.105455
w 133 132 -118 0.711416
w 133 -132 118 0.694471
w 133 -132 -118 0.458685
w 134 133 119 0.228531
w 134 133 -119 0.476819
w 134 -133 119 0.000407556
w 134 -133 -119 0.58377
w 135 134 120 0
w 135 134 -120 0
w 135 -134 120 1
w 135 -134 -120 1
w 136 121 1
w 136 -121 0
w 137 136 122 0
w 137 136 -122 0
w 137 -136 122 0
w 137 -136 -122 1
w 138 137 123 0
w 138 137 -123 1
w 138 -137 123 1
w 138 -137 -123 1
w 139 138 124 0.508258
w 139 138 -124 0.974379
w 139 -138 124 0.99564
w 139 -138 -124 0.446118
w 140 139 125 1
w 140 139 -125 0
w 140 -139 125 0
w 140 -139 -125 1
w 141 140 126 1
w 141 140 -126 0
w 141 -140 126 0
w 141 -140 -126 0
w 142 141 127 0.113738
w 142 141 -127 0.352548
w 142 -141 127 0.344789
w 142 -141 -127 0.550766
w 143 142 128 0
w 143 142 -128 1
w 143 -142 128 0
w 143 -142 -128 0
w 144 143 129 1
w 144 143 -129 1
w 144 -143 129 1
w 144 -143 -129 0
w 145 144 130 1
w 145 144 -130 0
w 145 -144 130 0
w 145 -144 -130 0
w 146 145 131 0
w 146 145 -131 1
w 146 -145 131 0
w 146 -145 -131 0
w 147 146 132 1
w 147 146 -132 1
w 147 -146 132 0
w 147 -146 -132 1
w 148 147 133 1
w 148 147 -133 0
w 148 -147 133 0
w 148 -147 -133 0
w 149 148 134 0
w 149 148 -134 0
w 149 -148 134 1
w 149 -148 -134 0
w 150 149 135 0
w 150 149 -135 1
w 150 -149 135 0
w 150 -149 -135 1
w 151 136 0
w 151 -136 1
w 152 151 137 0
w 152 151 -137 0
w 152 -151 137 1
w 152 -151 -137 0
w 153 152 138 0
w 153 152 -138 1
w 153 -152 138 1
w 153 -152 -138 1
w 154 153 139 0
w 154 153 -139 1
w 154 -153 139 0
w 154 -153 -139 1
w 155 154 140 0
w 155 154 -140 1
w 155 -154 140 1
w 155 -154 -140 1
w 156 155 141 0.747387
w 156 155 -141 0.136204
w 156 -155 141 0.543528
w 156 -155 -141 0.663778
w 157 156 142 0.846482
w 157 156 -142 0.842304
w 157 -156 142 0.0226229
w 157 -156 -142 0.718185
w 158 157 143 0
w 158 157 -143 0
w 158 -157 143 1
w 158 -157 -143 0
w 159 158 144 1
w 159 158 -144 1
w 159 -158 144 1
w 159 -158 -144 0
w 160 159 145 0
w 160 159 -145 0
w 160 -159 145 1
w 160 -159 -145 0
w 161 160 146 0
w 161 160 -146 0
w 161 -160 146 1
w 161 -160 -146 0
w 162 161 147 1
w 162 161 -147 1
w 162 -161 147 1
w 162 -161 -147 0
w 163 162 148 0
w 163 162 -148 1
w 163 -162 148 0
w 163 -162 -148 0
w 164 163 149 1
w 164 163 -149 1
w 164 -163 149 0
w 164 -163 -149 1
w 165 164 150 1
w 165 164 -150 0
w 165 -164 150 0
w 165 -164 -150 0
w 166 151 0.720941
w 166 -151 0.91966
w 167 166 152 0.933171
w 167 166 -152 0.534807
w 167 -166 152 0.946948
w 167 -166 -152 0.35231
w 168 167 153 0.493244
w 168 167 -153 0.258965
w 168 -167 153 0.388052
w 168 -167 -153 0.884634
w 169 168 154 0.0479394
w 169 168 -154 0.819551
w 169 -168 154 0.230825
w 169 -168 -154 0.687676
w 170 169 155 0
w 170 169 -155 1
w 170 -169 155 0
w 170 -169 -155 0
w 171 170 156 1
w 171 170 -156 0
w 171 -170 156 1
w 171 -170 -156 1
w 172 171 157 0.710034
w 172 171 -157 0.727003
w 172 -171 157 0.603483
w 172 -171 -157 0.629694
w 173 172 158 0
w 173 172 -158 1
w 173 -172 158 1
w 173 -172 -158 1
w 174 173 159 0
w 174 173 -159 0
w 174 -173 159 0
w 174 -173 -159 1
w 175 174 160 0
w 175 174 -160 1
w 175 -174 160 0
w 175 -174 -160 1
w 176 175 161 0
w 176 175 -161 1
w 176 -175 161 1
w 176 -175 -161 1
w 177 176 162 0
w 177 176 -162 1
w 177 -176 162 1
w 177 -176 -162 1
w 178 177 163 1
w 178 177 -163 0
w 178 -177 163 0
w 178 -177 -163 1
w 179 178 164 0
w 179 178 -164 0
w 179 -178 164 1
w 179 -178 -164 0
w 180 179 165 0.244085
w 180 179 -165 0.687108
w 180 -179 165 0.868152
w 180 -179 -165 0.30502
w 181 166 1
w 181 -166 0
w 182 181 167 0
w 182 181 -167 0
w 182 -181 167 0
w 182 -181 -167 1
w 183 182 168 0
w 183 182 -168 0
w 183 -182 168 1
w 183 -182 -168 1
w 184 183 169 0
w 184 183 -169 1
w 184 -183 169 0
w 184 -183 -169 1
w 185 184 170 1
w 185 184 -170 0
w 185 -184 170 0
w 185 -184 -170 0
w 186 185 171 1
w 186 185 -171 0
w 186 -185 171 0
w 186 -185 -171 0
w 187 186 172 1
w 187 186 -172 1
w 187 -186 172 1
w 187 -186 -172 0
w 188 187 173 1
w 188 187 -173 1
w 188 -187 173 0
w 188 -187 -173 1
w 189 188 174 0
w 189 188 -174 0
w 189 -188 174 1
w 189 -188 -174 0
w 190 189 175 1
w 190 189 -175 0
w 190 -189 175 0
w 190 -189 -175 0
w 191 190 176 0
w 191 190 -176 0
w 191 -190 176 1
w 191 -190 -176 0
w 192 191 177 0
w 192 191 -177 0
w 192 -191 177 1
w 192 -191 -177 0
w 193 192 178 0.107782
w 193 192 -178 0.38895
w 193 -192 178 0.906209
w 193 -192 -178 0.573954
w 194 193 179 0.947332
w 194 193 -179 0.319614
w 194 -193 179 0.366016
w 194 -193 -179 0.456801
w 195 194 180 0.852926
w 195 194 -180 0.635156
w 195 -194 180 0.0492132
w 195 -194 -180 0.619184
w 196 181 1
w 196 -181 0
w 197 196 182 1
w 197 196 -182 1
w 197 -196 182 1
w 197 -196 -182 0
w 198 197 183 0.215177
w 198 197 -183 0.562773
w 198 -197 183 0.91171
w 198 -197 -183 0.889196
w 199 198 184 0
w 199 198 -184 1
w 199 -198 184 1
w 199 -198 -184 0
w 200 199 185 0
w 200 199 -185 0
w 200 -199 185 1
w 200 -199 -185 0
w 201 200 186 0
w 201 200 -186 0
w 201 -200 186 1
w 201 -200 -186 0
w 202 201 187 0
w 202 201 -187 0
w 202 -201 187 0
w 202 -201 -187 1
w 203 202 188 0
w 203 202 -188 0
w 203 -202 188 1
w 203 -202 -188 1
w 204 203 189 1
w 204 203 -189 1
w 204 -203 189 1
w 204 -203 -189 0
w 205 204 190 0
w 205 204 -190 0
w 205 -204 190 0
w 205 -204 -190 1
w 206 205 191 1
w 206 205 -191 1
w 206 -205 191 1
w 206 -205 -191 0
w 207 206 192 0.500875
w 207 206 -192 0.851082
w 207 -206 192 0.27477
w 207 -206 -192 0.0488662
w 208 207 193 1
w 208 207 -193 0
w 208 -207 193 1
w 208 -207 -193 1
w 209 208 194 1
w 209 208 -194 1
w 209 -208 194 0
w 209 -208 -194 0
w 210 209 195 0
w 210 209 -195 1
w 210 -209 195 0
w 210 -209 -195 0
w 211 196 0.600096
w 211 -196 0.613733
w 212 211 197 0.277552
w 212 211 -197 0.454183
w 212 -211 197 0.197067
w 212 -211 -197 0.190377
w 213 212 198 0
w 213 212 -198 1
w 213 -212 198 1
w 213 -212 -198 0
w 214 213 199 0.504214
w 214 213 -199 0.156492
w 214 -213 199 0.502275
w 214 -213 -199 0.0120077
w 215 214 200 1
w 215 214 -200 0
w 215 -214 200 0
w 215 -214 -200 0
w 216 215 201 0
w 216 215 -201 0
w 216 -215 201 0
w 216 -215 -201 1
w 217 216 202 0
w 217 216 -202 1
w 217 -216 202 0
w 217 -216 -202 1
w 218 217 203 0
w 218 217 -203 0
w 218 -217 203 1
w 218 -217 -203 0
w 219 218 204 0.322433
w 219 218 -204 0.310646
w 219 -218 204 0.736388
w 219 -218 -204 0.551878
w 220 219 205 1
w 220 219 -205 0
w 220 -219 205 1
w 220 -219 -205 1
w 221 220 206 0
w 221 220 -206 0
w 221 -220 206 1
w 221 -220 -206 0
w 222 221 207 0
w 222 221 -207 1
w 222 -221 207 1
w 222 -221 -207 1
w 223 222 208 0
w 223 222 -208 1
w 223 -222 208 1
w 223 -222 -208 1
w 224 223 209 1
w 224 223 -209 0
w 224 -223 209 0
w 224 -223 -209 1
w 225 224 210 1
w 225 224 -210 0
w 225 -224 210 1
w 225 -224 -210 1